NAME : A-n45-k6-20
TYPE : VRP-D
DIMENSION : 20
CAPACITY : 100
NODE_COORD_SECTION 
 1 31 73
 2 11 67
 3 52 96
 4 81 29
 5 97 62
 6 71 5
 7 6 56
 8 48 50
 9 91 17
 10 49 68
 11 85 29
 12 11 16
 13 74 98
 14 56 37
 15 13 81
 16 66 80
 17 96 55
 18 36 17
 19 32 23
 20 6 13
DEMAND_SECTION 
1 0 
2 19 
3 2 
4 12 
5 20 
6 6 
7 17 
8 8 
9 14 
10 2 
11 8 
12 5 
13 7 
14 22 
15 14 
16 17 
17 23 
18 15 
19 21 
20 2 
DEPOT_SECTION 
 1  
 -1  
EOF 
